Copyright (C) 2013-2015, Filipe Brandao
Build (method = -2)
  #dp: 55585
  Step-3' Graph: 316 vertices and 23221 arcs (0.14s)
  Step-4' Graph: 311 vertices and 23211 arcs (0.14s)
  #V4/#V3 = 0.98
  #A4/#A3 = 1.00
Ready! (0.14s)
Optimize a model with 539 rows, 23212 columns and 69021 nonzeros
Found heuristic solution: objective 672
Presolve removed 75 rows and 75 columns
Presolve time: 0.08s
Presolved: 464 rows, 23137 columns, 68710 nonzeros
Variable types: 0 continuous, 23137 integer (3101 binary)
Optimize a model with 464 rows, 23137 columns and 68710 nonzeros
Presolved: 464 rows, 23137 columns, 68710 nonzeros

Root barrier log...

Ordering time: 0.00s

Barrier statistics:
 AA' NZ     : 4.454e+04
 Factor NZ  : 7.254e+04 (roughly 10 MBytes of memory)
 Factor Ops : 1.499e+07 (less than 1 second per iteration)
 Threads    : 1

                  Objective                Residual
Iter       Primal          Dual         Primal    Dual     Compl     Time
   0   4.04452904e+04 -5.05843235e+05  4.45e+05 4.92e-02  1.58e+02     0s
   1   1.14221963e+04 -1.62709987e+05  6.01e+04 7.77e-16  2.32e+01     0s
   2   3.50961608e+03 -6.29092324e+04  8.77e+03 1.35e-02  4.10e+00     0s
   3   1.93186652e+03 -2.13448209e+04  1.71e+03 2.19e-04  9.15e-01     0s
   4   1.21571410e+03 -8.92073394e+03  5.87e+02 7.99e-15  3.36e-01     0s
   5   9.00610457e+02 -4.40812857e+03  2.22e+02 7.55e-15  1.52e-01     0s
   6   7.79326006e+02 -2.29869755e+03  1.01e+02 4.44e-15  7.94e-02     0s
   7   7.58742824e+02 -1.49020539e+03  8.73e+01 3.33e-15  5.75e-02     0s
   8   7.40977728e+02 -1.16831858e+03  7.68e+01 2.66e-15  4.84e-02     0s
   9   6.68279309e+02 -7.47560938e+02  3.38e+01 1.55e-15  3.34e-02     0s
  10   6.08058816e+02 -4.77776536e+02  2.29e+01 1.22e-15  2.52e-02     0s
  11   5.32913085e+02 -3.96755298e+02  1.54e+01 7.77e-16  2.12e-02     0s
  12   4.89737642e+02 -2.09786979e+02  1.15e+01 7.77e-16  1.59e-02     0s
  13   4.59860771e+02 -1.50257745e+02  9.56e+00 7.90e-16  1.38e-02     0s
  14   4.21497734e+02 -6.22479105e+01  7.07e+00 7.77e-16  1.09e-02     0s
  15   4.10264181e+02 -2.07559366e+01  6.49e+00 9.03e-16  9.67e-03     0s
  16   3.58600574e+02  3.34328797e+01  3.80e+00 9.61e-16  7.22e-03     0s
  17   3.32878564e+02  1.25763601e+02  2.32e+00 8.18e-16  4.57e-03     0s
  18   3.20579342e+02  1.75759567e+02  1.54e+00 7.47e-16  3.18e-03     0s
  19   3.16779149e+02  2.02226623e+02  1.31e+00 8.06e-16  2.51e-03     0s
  20   3.13267773e+02  2.24210346e+02  1.07e+00 1.02e-15  1.95e-03     0s
  21   3.08259264e+02  2.46714932e+02  7.04e-01 7.92e-16  1.34e-03     0s
  22   3.05926544e+02  2.67330806e+02  4.26e-01 8.09e-16  8.38e-04     0s
  23   3.03188911e+02  2.83004353e+02  1.52e-01 6.27e-16  4.36e-04     0s
  24   3.02266844e+02  2.89120216e+02  8.79e-02 7.29e-16  2.84e-04     0s
  25   3.01683864e+02  2.92777961e+02  5.37e-02 6.49e-16  1.92e-04     0s
  26   3.01429163e+02  2.93028846e+02  4.13e-02 8.00e-16  1.81e-04     0s
  27   3.01090506e+02  2.95137959e+02  2.43e-02 7.60e-16  1.28e-04     0s
  28   3.00829278e+02  2.96952129e+02  1.36e-02 6.82e-16  8.36e-05     0s
  29   3.00682048e+02  2.98381301e+02  8.41e-03 8.04e-16  4.96e-05     0s
  30   3.00623361e+02  2.98525914e+02  6.74e-03 8.65e-16  4.52e-05     0s
  31   3.00566888e+02  2.99253707e+02  5.15e-03 6.36e-16  2.83e-05     0s
  32   3.00523250e+02  2.99784227e+02  3.96e-03 6.23e-16  1.59e-05     0s
  33   3.00441085e+02  2.99965956e+02  1.92e-03 7.77e-16  1.02e-05     0s
  34   3.00420087e+02  3.00041811e+02  1.55e-03 6.62e-16  8.16e-06     0s
  35   3.00410556e+02  3.00179637e+02  1.30e-03 6.66e-16  4.98e-06     0s
  36   3.00375564e+02  3.00350739e+02  8.21e-05 6.66e-16  5.35e-07     0s
  37   3.00370009e+02  3.00369927e+02  6.46e-08 5.55e-16  1.76e-09     0s
  38   3.00370000e+02  3.00370000e+02  4.38e-12 7.18e-16  1.82e-15     0s

Barrier solved model in 38 iterations and 0.39 seconds
Optimal objective 3.00370000e+02


Root relaxation: objective 3.003700e+02, 15956 iterations, 0.58 seconds

    Nodes    |    Current Node    |     Objective Bounds      |     Work
 Expl Unexpl |  Obj  Depth IntInf | Incumbent    BestBd   Gap | It/Node Time

     0     0  300.37000    0  130  672.00000  300.37000  55.3%     -    2s
H    0     0                     303.0000000  300.37000  0.87%     -    2s
H    0     0                     302.0000000  300.37000  0.54%     -    2s
H    0     0                     301.0000000  300.37000  0.21%     -    2s

Explored 0 nodes (24162 simplex iterations) in 2.99 seconds
Thread count was 1 (of 4 available processors)

Optimal solution found (tolerance 0.00e+00)
Best objective 3.010000000000e+02, best bound 3.010000000000e+02, gap 0.0%
Preprocessing time: 0.18 seconds
Gurobi run time: 2.99 seconds
Total run time: 3.17 seconds
Objective: 301
Solution:
2 x [i=1, i=153]
5 x [i=2, i=152]
1 x [i=2, i=193, i=225]
1 x [i=2, i=225]
4 x [i=3, i=151]
2 x [i=4, i=191, i=224]
1 x [i=5, i=148]
2 x [i=6, i=147]
2 x [i=6, i=187, i=226]
4 x [i=7, i=146]
4 x [i=8, i=145]
6 x [i=9, i=144]
2 x [i=10, i=143]
1 x [i=11, i=142]
1 x [i=12, i=141]
1 x [i=12, i=192, i=215]
4 x [i=13, i=140]
1 x [i=14, i=138]
5 x [i=15, i=137]
2 x [i=16, i=136]
2 x [i=17, i=135]
3 x [i=18, i=134]
2 x [i=18, i=174, i=227]
1 x [i=18, i=185, i=215]
2 x [i=19, i=133]
1 x [i=19, i=181, i=218]
2 x [i=20, i=132]
2 x [i=21, i=131]
3 x [i=21, i=179, i=219]
3 x [i=22, i=130]
2 x [i=22, i=173, i=224]
3 x [i=23, i=129]
3 x [i=23, i=177, i=219]
4 x [i=24, i=128]
1 x [i=24, i=173, i=222]
4 x [i=25, i=126]
1 x [i=25, i=215, i=218, i=224]
3 x [i=26, i=125]
1 x [i=26, i=187, i=205]
1 x [i=27, i=124]
2 x [i=27, i=178, i=214]
2 x [i=28, i=123]
3 x [i=29, i=122]
2 x [i=30, i=121]
1 x [i=31, i=120]
2 x [i=31, i=176, i=212]
2 x [i=31, i=189, i=198]
3 x [i=31, i=192, i=197]
2 x [i=32, i=119]
4 x [i=33, i=118]
2 x [i=34, i=117]
1 x [i=35, i=116]
1 x [i=35, i=167, i=216]
1 x [i=35, i=174, i=210]
1 x [i=35, i=190, i=195]
2 x [i=36, i=161, i=221]
3 x [i=37, i=114]
1 x [i=37, i=165, i=215]
2 x [i=38, i=113]
1 x [i=38, i=178, i=202]
1 x [i=39, i=111]
2 x [i=40, i=110]
4 x [i=41, i=109]
1 x [i=42, i=169, i=206]
2 x [i=43, i=107]
2 x [i=43, i=166, i=208]
1 x [i=44, i=106]
2 x [i=44, i=163, i=210]
1 x [i=44, i=180, i=195]
2 x [i=44, i=181, i=193]
3 x [i=45, i=105]
3 x [i=46, i=104]
1 x [i=46, i=171, i=200]
4 x [i=47, i=103]
1 x [i=48, i=102]
1 x [i=48, i=181, i=189]
3 x [i=49, i=101]
1 x [i=50, i=100]
2 x [i=51, i=99]
3 x [i=51, i=175, i=193]
1 x [i=51, i=178, i=190]
3 x [i=52, i=98]
3 x [i=52, i=148, i=217]
1 x [i=52, i=175, i=192]
2 x [i=53, i=97]
1 x [i=54, i=96]
2 x [i=54, i=155, i=209]
3 x [i=54, i=163, i=200]
3 x [i=55, i=95]
1 x [i=55, i=174, i=190]
3 x [i=56, i=94]
1 x [i=57, i=138, i=222]
2 x [i=57, i=154, i=207]
2 x [i=57, i=157, i=204]
1 x [i=57, i=159, i=202]
2 x [i=57, i=168, i=194]
2 x [i=58, i=92]
4 x [i=59, i=91]
1 x [i=60, i=169, i=190]
2 x [i=61, i=89]
3 x [i=62, i=88]
2 x [i=63, i=87]
1 x [i=63, i=150, i=205]
2 x [i=63, i=157, i=198]
1 x [i=64, i=86]
3 x [i=65, i=155, i=198]
6 x [i=66, i=84]
2 x [i=66, i=123, i=228]
1 x [i=67, i=83]
1 x [i=68, i=81]
2 x [i=68, i=162, i=188]
2 x [i=69, i=80]
4 x [i=70, i=78]
2 x [i=70, i=135, i=211]
1 x [i=71, i=182, i=213, i=216]
5 x [i=72, i=76]
2 x [i=73, i=75]
1 x [i=73, i=158, i=187]
1 x [i=74, i=162, i=182]
1 x [i=74, i=167, i=177]
1 x [i=75, i=153, i=190]
1 x [i=75, i=158, i=185]
1 x [i=75, i=178, i=213, i=217]
1 x [i=76, i=123, i=216]
1 x [i=77, i=138, i=201]
1 x [i=77, i=153, i=188]
1 x [i=77, i=164, i=177]
1 x [i=79, i=157, i=182]
1 x [i=82, i=112, i=222]
1 x [i=82, i=117, i=216]
1 x [i=82, i=123, i=211]
1 x [i=82, i=160, i=177]
1 x [i=82, i=178, i=203, i=220]
1 x [i=83, i=163, i=228]
2 x [i=85, i=136, i=197]
1 x [i=85, i=148, i=185]
1 x [i=86, i=108, i=226]
2 x [i=86, i=156, i=177]
1 x [i=88, i=103]
1 x [i=89, i=154, i=176]
1 x [i=90, i=149, i=180]
1 x [i=91, i=142, i=185]
2 x [i=92, i=119, i=205]
1 x [i=93, i=103, i=220]
1 x [i=94, i=157, i=168]
1 x [i=100, i=115, i=202]
1 x [i=101, i=159, i=160]
1 x [i=108, i=108, i=201]
1 x [i=110, i=117, i=191]
1 x [i=111, i=119, i=188]
2 x [i=112, i=117, i=189]
1 x [i=112, i=142, i=202, i=228]
1 x [i=115, i=132, i=172]
1 x [i=119, i=171, i=196, i=199]
1 x [i=121, i=147, i=190, i=227]
1 x [i=127, i=138, i=154]
1 x [i=139, i=186, i=198, i=210, i=217]
1 x [i=141, i=170, i=199, i=214]
1 x [i=145, i=150, i=184, i=207]
1 x [i=166, i=183, i=212, i=222, i=223, i=227]
1 x [i=167, i=206, i=218, i=219, i=225, i=227, i=227]
